instances/knapsack/discrete/knapsack_60_11.kp
80889
60
299

9 0.9 82
90 9.0 6
48 4.8 100
69 6.9 36
42 4.2 17
87 8.7 29
15 1.5 89
25 2.5 31
71 7.1 66
84 8.4 98
25 2.5 99
85 8.5 23
90 9.0 15
10 1.0 2
30 3.0 83
66 6.6 92
75 7.5 42
58 5.8 54
39 3.9 14
24 2.4 45
31 3.1 65
97 9.7 91
2 0.2 48
68 6.8 40
6 0.6 41
70 7.0 42
88 8.8 100
13 1.3 27
7 0.7 38
33 3.3 92
35 3.5 41
17 1.7 76
49 4.9 4
47 4.7 91
14 1.4 35
87 8.7 57
74 7.4 61
46 4.6 15
98 9.8 98
68 6.8 3
53 5.3 56
23 2.3 1
88 8.8 45
31 3.1 27
29 2.9 34
96 9.6 35
95 9.5 40
95 9.5 32
33 3.3 80
70 7.0 93
80 8.0 87
94 9.4 98
55 5.5 15
18 1.8 73
6 0.6 16
29 2.9 70
39 3.9 14
88 8.8 48
46 4.6 88
80 8.0 99

28318
275

[0.54 4.31 3.07 3.44 2.53 0.1 1.45 2.57 2.57 2.5 2.04 0.15 0.02 4.27 3.52 1.95 2.67 3.73 0.36 2.56 0.22 0.65 1.42 2.78 2.32 1.5 2.38 0.97 2.31 4.03 1.45 0.25 0.05 3.04 4.06 4.21 4.15 1.7 0.37 0.39 2.64 4.57 1.31 0.27 3.75 2.86 3.27 3.09 4.54 2.12 0.8 0.94 0.31 1.71 1.69 2.7 1.29 0.61 2.94 4.31]

[46 58 52 73 78 72 43 46 23 64 78 85 54 78 87 91 47 54 3 4 11 14 46 93 43 10 24 18 88 29 28 54 54 3 66 35 78 3 50 85 69 24 44 32 1 9 24 8 69 14 49 58 95 46 87 74 75 65 22 60]
