instances/knapsack/discrete/knapsack_60_11.lp
\ Model knapsack_60_11
\ LP format - for model browsing. Use MPS format to capture full model detail.
\ Signature: 0x44a844bc7146bef8
Minimize
  - 91 x[0] - 23 x[1] - 37 x[2] - 29 x[3] - 62 x[4] - 26 x[5] - 6 x[6]
   - 12 x[7] - 11 x[8] - 99 x[9] - 4 x[10] - 16 x[11] - 56 x[12] - 95 x[13]
   - 32 x[14] - 17 x[15] - 71 x[16] - 91 x[17] - 79 x[18] - 54 x[19]
   - 18 x[20] - 100 x[21] - x[22] - 41 x[23] - 74 x[24] - 91 x[25]
   - 5 x[26] - 100 x[27] - 3 x[28] - 21 x[29] - 74 x[30] - 33 x[31]
   - 65 x[32] - 92 x[33] - 16 x[34] - 10 x[35] - 66 x[36] - 76 x[37]
   - 83 x[38] - 96 x[39] - 61 x[40] - 2 x[41] - 54 x[42] - 28 x[43]
   - 79 x[44] - 12 x[45] - 9 x[46] - 57 x[47] - 65 x[48] - 26 x[49]
   - 84 x[50] - 3 x[51] - 48 x[52] - 78 x[53] - 33 x[54] - 59 x[55]
   - 23 x[56] - 85 x[57] - 61 x[58] - 36 x[59]
Subject To
 primal_upper: 82 x[0] + 75 x[1] + 97 x[2] + 98 x[3] + 15 x[4] + 84 x[5]
   + 52 x[6] + 10 x[7] + 76 x[8] + 45 x[9] + 82 x[10] + 10 x[11] + 15 x[12]
   + 31 x[13] + 47 x[14] + 47 x[15] + 44 x[16] + 67 x[17] + 100 x[18]
   + 49 x[19] + 52 x[20] + 54 x[21] + 43 x[22] + 53 x[23] + 43 x[24]
   + 31 x[25] + 65 x[26] + 66 x[27] + 48 x[28] + 2 x[29] + 76 x[30]
   + 38 x[31] + 30 x[32] + 72 x[33] + 79 x[34] + 76 x[35] + 99 x[36]
   + 67 x[37] + 99 x[38] + 9 x[39] + 34 x[40] + 8 x[41] + 53 x[42]
   + 60 x[43] + 38 x[44] + 57 x[45] + 12 x[46] + 88 x[47] + 50 x[48]
   + 79 x[49] + 97 x[50] + 47 x[51] + 44 x[52] + 47 x[53] + 3 x[54]
   + 74 x[55] + 68 x[56] + 13 x[57] + 23 x[58] + 49 x[59] + 8.2 r[0]
   + 7.5 r[1] + 9.7 r[2] + 9.8 r[3] + 1.5 r[4] + 8.4 r[5] + 5.2 r[6] + r[7]
   + 7.6 r[8] + 4.5 r[9] + 8.2 r[10] + r[11] + 1.5 r[12] + 3.1 r[13]
   + 4.7 r[14] + 4.7 r[15] + 4.4 r[16] + 6.7 r[17] + 10 r[18] + 4.9 r[19]
   + 5.2 r[20] + 5.4 r[21] + 4.3 r[22] + 5.3 r[23] + 4.3 r[24] + 3.1 r[25]
   + 6.5 r[26] + 6.6 r[27] + 4.8 r[28] + 0.2 r[29] + 7.6 r[30] + 3.8 r[31]
   + 3 r[32] + 7.2 r[33] + 7.9 r[34] + 7.6 r[35] + 9.9 r[36] + 6.7 r[37]
   + 9.9 r[38] + 0.9 r[39] + 3.4 r[40] + 0.8 r[41] + 5.3 r[42] + 6 r[43]
   + 3.8 r[44] + 5.7 r[45] + 1.2 r[46] + 8.8 r[47] + 5 r[48] + 7.9 r[49]
   + 9.7 r[50] + 4.7 r[51] + 4.4 r[52] + 4.7 r[53] + 0.3 r[54] + 7.4 r[55]
   + 6.8 r[56] + 1.3 r[57] + 2.3 r[58] + 4.9 r[59] <= 302
 primal_lower: 4.256774253203794 x[0] + 3.129492560721129 x[1]
   + 4.472213795523838 x[2] + 1.593078258000846 x[3]
   + 1.618534507863586 x[4] + 1.998042430349851 x[5]
   + 3.729423172294443 x[6] + 4.36714716345064 x[7]
   + 0.5204233618010808 x[8] + 2.078811302325428 x[9]
   + 4.135858643950922 x[10] + 3.479408210428756 x[11]
   + 4.107670040966437 x[12] + 2.971884037389132 x[13]
   + 3.463226085115048 x[14] + 3.714224417180707 x[15]
   + 4.007187801972986 x[16] + 1.472295180722899 x[17]
   + 1.85559314963331 x[18] + 1.125361542079719 x[19]
   + 3.746238889641841 x[20] + 0.5723038766631585 x[21]
   + 0.0543568801607001 x[22] + 4.308437254210712 x[23]
   + 3.363778000277523 x[24] + 3.712301997658353 x[25]
   + 1.97518670394173 x[26] + 1.323074692300592 x[27]
   + 2.526790026852957 x[28] + 0.8060582169464025 x[29]
   + 0.3775993956673643 x[30] + 0.8208698050871537 x[31]
   + 3.598366069699826 x[32] + 4.072169507208038 x[33]
   + 3.287014561548598 x[34] + 0.6612194586314897 x[35]
   + 1.195229106106266 x[36] + 2.316683371205575 x[37]
   + 3.279122497834285 x[38] + 4.305806281107831 x[39]
   + 2.806177468950651 x[40] + 0.1510669806259155 x[41]
   + 3.326374697608425 x[42] + 0.1339159811121749 x[43]
   + 3.320863952743584 x[44] + 4.373714401840283 x[45]
   + 4.079794996961037 x[46] + 2.556163402980359 x[47]
   + 1.557591295375799 x[48] + 2.642673400159391 x[49]
   + 0.3199722861277132 x[50] + 4.369507864208195 x[51]
   + 3.718788126135011 x[52] + 3.097715649898015 x[53]
   + 3.621811969592429 x[54] + 2.989272351730003 x[55]
   + 3.146215131799376 x[56] + 2.49627657071998 x[57]
   + 4.43793227477818 x[58] + 2.794221594232959 x[59] + 63 u[0] + 76 u[1]
   + 26 u[2] + 67 u[3] + 76 u[4] + 49 u[5] + 97 u[6] + 47 u[7] + 17 u[8]
   + 2 u[9] + 15 u[10] + 67 u[11] + 24 u[12] + 28 u[13] + 100 u[14]
   + 56 u[15] + 97 u[16] + 4 u[17] + 97 u[18] + 26 u[19] + 89 u[20]
   + 59 u[21] + 44 u[22] + 10 u[23] + 16 u[24] + 16 u[25] + 90 u[26]
   + 3 u[27] + 37 u[28] + 35 u[29] + 21 u[30] + 19 u[31] + 3 u[32]
   + 93 u[33] + 88 u[34] + 9 u[35] + 48 u[36] + 68 u[37] + 96 u[38]
   + 74 u[39] + 83 u[40] + 57 u[41] + 2 u[42] + 5 u[43] + 43 u[44]
   + 58 u[45] + 17 u[46] + 17 u[47] + 87 u[48] + 44 u[49] + 50 u[50]
   + 100 u[51] + 61 u[52] + 20 u[53] + 64 u[54] + 11 u[55] + 37 u[56]
   + 46 u[57] + 20 u[58] + 82 u[59] <= 51373
 mccormick1[0]: - u[0] + r[0] <= 0
 mccormick1[1]: - u[1] + r[1] <= 0
 mccormick1[2]: - u[2] + r[2] <= 0
 mccormick1[3]: - u[3] + r[3] <= 0
 mccormick1[4]: - u[4] + r[4] <= 0
 mccormick1[5]: - u[5] + r[5] <= 0
 mccormick1[6]: - u[6] + r[6] <= 0
 mccormick1[7]: - u[7] + r[7] <= 0
 mccormick1[8]: - u[8] + r[8] <= 0
 mccormick1[9]: - u[9] + r[9] <= 0
 mccormick1[10]: - u[10] + r[10] <= 0
 mccormick1[11]: - u[11] + r[11] <= 0
 mccormick1[12]: - u[12] + r[12] <= 0
 mccormick1[13]: - u[13] + r[13] <= 0
 mccormick1[14]: - u[14] + r[14] <= 0
 mccormick1[15]: - u[15] + r[15] <= 0
 mccormick1[16]: - u[16] + r[16] <= 0
 mccormick1[17]: - u[17] + r[17] <= 0
 mccormick1[18]: - u[18] + r[18] <= 0
 mccormick1[19]: - u[19] + r[19] <= 0
 mccormick1[20]: - u[20] + r[20] <= 0
 mccormick1[21]: - u[21] + r[21] <= 0
 mccormick1[22]: - u[22] + r[22] <= 0
 mccormick1[23]: - u[23] + r[23] <= 0
 mccormick1[24]: - u[24] + r[24] <= 0
 mccormick1[25]: - u[25] + r[25] <= 0
 mccormick1[26]: - u[26] + r[26] <= 0
 mccormick1[27]: - u[27] + r[27] <= 0
 mccormick1[28]: - u[28] + r[28] <= 0
 mccormick1[29]: - u[29] + r[29] <= 0
 mccormick1[30]: - u[30] + r[30] <= 0
 mccormick1[31]: - u[31] + r[31] <= 0
 mccormick1[32]: - u[32] + r[32] <= 0
 mccormick1[33]: - u[33] + r[33] <= 0
 mccormick1[34]: - u[34] + r[34] <= 0
 mccormick1[35]: - u[35] + r[35] <= 0
 mccormick1[36]: - u[36] + r[36] <= 0
 mccormick1[37]: - u[37] + r[37] <= 0
 mccormick1[38]: - u[38] + r[38] <= 0
 mccormick1[39]: - u[39] + r[39] <= 0
 mccormick1[40]: - u[40] + r[40] <= 0
 mccormick1[41]: - u[41] + r[41] <= 0
 mccormick1[42]: - u[42] + r[42] <= 0
 mccormick1[43]: - u[43] + r[43] <= 0
 mccormick1[44]: - u[44] + r[44] <= 0
 mccormick1[45]: - u[45] + r[45] <= 0
 mccormick1[46]: - u[46] + r[46] <= 0
 mccormick1[47]: - u[47] + r[47] <= 0
 mccormick1[48]: - u[48] + r[48] <= 0
 mccormick1[49]: - u[49] + r[49] <= 0
 mccormick1[50]: - u[50] + r[50] <= 0
 mccormick1[51]: - u[51] + r[51] <= 0
 mccormick1[52]: - u[52] + r[52] <= 0
 mccormick1[53]: - u[53] + r[53] <= 0
 mccormick1[54]: - u[54] + r[54] <= 0
 mccormick1[55]: - u[55] + r[55] <= 0
 mccormick1[56]: - u[56] + r[56] <= 0
 mccormick1[57]: - u[57] + r[57] <= 0
 mccormick1[58]: - u[58] + r[58] <= 0
 mccormick1[59]: - u[59] + r[59] <= 0
 mccormick2[0]: - x[0] + r[0] <= 0
 mccormick2[1]: - x[1] + r[1] <= 0
 mccormick2[2]: - x[2] + r[2] <= 0
 mccormick2[3]: - x[3] + r[3] <= 0
 mccormick2[4]: - x[4] + r[4] <= 0
 mccormick2[5]: - x[5] + r[5] <= 0
 mccormick2[6]: - x[6] + r[6] <= 0
 mccormick2[7]: - x[7] + r[7] <= 0
 mccormick2[8]: - x[8] + r[8] <= 0
 mccormick2[9]: - x[9] + r[9] <= 0
 mccormick2[10]: - x[10] + r[10] <= 0
 mccormick2[11]: - x[11] + r[11] <= 0
 mccormick2[12]: - x[12] + r[12] <= 0
 mccormick2[13]: - x[13] + r[13] <= 0
 mccormick2[14]: - x[14] + r[14] <= 0
 mccormick2[15]: - x[15] + r[15] <= 0
 mccormick2[16]: - x[16] + r[16] <= 0
 mccormick2[17]: - x[17] + r[17] <= 0
 mccormick2[18]: - x[18] + r[18] <= 0
 mccormick2[19]: - x[19] + r[19] <= 0
 mccormick2[20]: - x[20] + r[20] <= 0
 mccormick2[21]: - x[21] + r[21] <= 0
 mccormick2[22]: - x[22] + r[22] <= 0
 mccormick2[23]: - x[23] + r[23] <= 0
 mccormick2[24]: - x[24] + r[24] <= 0
 mccormick2[25]: - x[25] + r[25] <= 0
 mccormick2[26]: - x[26] + r[26] <= 0
 mccormick2[27]: - x[27] + r[27] <= 0
 mccormick2[28]: - x[28] + r[28] <= 0
 mccormick2[29]: - x[29] + r[29] <= 0
 mccormick2[30]: - x[30] + r[30] <= 0
 mccormick2[31]: - x[31] + r[31] <= 0
 mccormick2[32]: - x[32] + r[32] <= 0
 mccormick2[33]: - x[33] + r[33] <= 0
 mccormick2[34]: - x[34] + r[34] <= 0
 mccormick2[35]: - x[35] + r[35] <= 0
 mccormick2[36]: - x[36] + r[36] <= 0
 mccormick2[37]: - x[37] + r[37] <= 0
 mccormick2[38]: - x[38] + r[38] <= 0
 mccormick2[39]: - x[39] + r[39] <= 0
 mccormick2[40]: - x[40] + r[40] <= 0
 mccormick2[41]: - x[41] + r[41] <= 0
 mccormick2[42]: - x[42] + r[42] <= 0
 mccormick2[43]: - x[43] + r[43] <= 0
 mccormick2[44]: - x[44] + r[44] <= 0
 mccormick2[45]: - x[45] + r[45] <= 0
 mccormick2[46]: - x[46] + r[46] <= 0
 mccormick2[47]: - x[47] + r[47] <= 0
 mccormick2[48]: - x[48] + r[48] <= 0
 mccormick2[49]: - x[49] + r[49] <= 0
 mccormick2[50]: - x[50] + r[50] <= 0
 mccormick2[51]: - x[51] + r[51] <= 0
 mccormick2[52]: - x[52] + r[52] <= 0
 mccormick2[53]: - x[53] + r[53] <= 0
 mccormick2[54]: - x[54] + r[54] <= 0
 mccormick2[55]: - x[55] + r[55] <= 0
 mccormick2[56]: - x[56] + r[56] <= 0
 mccormick2[57]: - x[57] + r[57] <= 0
 mccormick2[58]: - x[58] + r[58] <= 0
 mccormick2[59]: - x[59] + r[59] <= 0
 mccormick3[0]: x[0] + u[0] - r[0] <= 1
 mccormick3[1]: x[1] + u[1] - r[1] <= 1
 mccormick3[2]: x[2] + u[2] - r[2] <= 1
 mccormick3[3]: x[3] + u[3] - r[3] <= 1
 mccormick3[4]: x[4] + u[4] - r[4] <= 1
 mccormick3[5]: x[5] + u[5] - r[5] <= 1
 mccormick3[6]: x[6] + u[6] - r[6] <= 1
 mccormick3[7]: x[7] + u[7] - r[7] <= 1
 mccormick3[8]: x[8] + u[8] - r[8] <= 1
 mccormick3[9]: x[9] + u[9] - r[9] <= 1
 mccormick3[10]: x[10] + u[10] - r[10] <= 1
 mccormick3[11]: x[11] + u[11] - r[11] <= 1
 mccormick3[12]: x[12] + u[12] - r[12] <= 1
 mccormick3[13]: x[13] + u[13] - r[13] <= 1
 mccormick3[14]: x[14] + u[14] - r[14] <= 1
 mccormick3[15]: x[15] + u[15] - r[15] <= 1
 mccormick3[16]: x[16] + u[16] - r[16] <= 1
 mccormick3[17]: x[17] + u[17] - r[17] <= 1
 mccormick3[18]: x[18] + u[18] - r[18] <= 1
 mccormick3[19]: x[19] + u[19] - r[19] <= 1
 mccormick3[20]: x[20] + u[20] - r[20] <= 1
 mccormick3[21]: x[21] + u[21] - r[21] <= 1
 mccormick3[22]: x[22] + u[22] - r[22] <= 1
 mccormick3[23]: x[23] + u[23] - r[23] <= 1
 mccormick3[24]: x[24] + u[24] - r[24] <= 1
 mccormick3[25]: x[25] + u[25] - r[25] <= 1
 mccormick3[26]: x[26] + u[26] - r[26] <= 1
 mccormick3[27]: x[27] + u[27] - r[27] <= 1
 mccormick3[28]: x[28] + u[28] - r[28] <= 1
 mccormick3[29]: x[29] + u[29] - r[29] <= 1
 mccormick3[30]: x[30] + u[30] - r[30] <= 1
 mccormick3[31]: x[31] + u[31] - r[31] <= 1
 mccormick3[32]: x[32] + u[32] - r[32] <= 1
 mccormick3[33]: x[33] + u[33] - r[33] <= 1
 mccormick3[34]: x[34] + u[34] - r[34] <= 1
 mccormick3[35]: x[35] + u[35] - r[35] <= 1
 mccormick3[36]: x[36] + u[36] - r[36] <= 1
 mccormick3[37]: x[37] + u[37] - r[37] <= 1
 mccormick3[38]: x[38] + u[38] - r[38] <= 1
 mccormick3[39]: x[39] + u[39] - r[39] <= 1
 mccormick3[40]: x[40] + u[40] - r[40] <= 1
 mccormick3[41]: x[41] + u[41] - r[41] <= 1
 mccormick3[42]: x[42] + u[42] - r[42] <= 1
 mccormick3[43]: x[43] + u[43] - r[43] <= 1
 mccormick3[44]: x[44] + u[44] - r[44] <= 1
 mccormick3[45]: x[45] + u[45] - r[45] <= 1
 mccormick3[46]: x[46] + u[46] - r[46] <= 1
 mccormick3[47]: x[47] + u[47] - r[47] <= 1
 mccormick3[48]: x[48] + u[48] - r[48] <= 1
 mccormick3[49]: x[49] + u[49] - r[49] <= 1
 mccormick3[50]: x[50] + u[50] - r[50] <= 1
 mccormick3[51]: x[51] + u[51] - r[51] <= 1
 mccormick3[52]: x[52] + u[52] - r[52] <= 1
 mccormick3[53]: x[53] + u[53] - r[53] <= 1
 mccormick3[54]: x[54] + u[54] - r[54] <= 1
 mccormick3[55]: x[55] + u[55] - r[55] <= 1
 mccormick3[56]: x[56] + u[56] - r[56] <= 1
 mccormick3[57]: x[57] + u[57] - r[57] <= 1
 mccormick3[58]: x[58] + u[58] - r[58] <= 1
 mccormick3[59]: x[59] + u[59] - r[59] <= 1
Bounds
Binaries
 x[0] x[1] x[2] x[3] x[4] x[5] x[6] x[7] x[8] x[9] x[10] x[11] x[12] x[13]
 x[14] x[15] x[16] x[17] x[18] x[19] x[20] x[21] x[22] x[23] x[24] x[25]
 x[26] x[27] x[28] x[29] x[30] x[31] x[32] x[33] x[34] x[35] x[36] x[37]
 x[38] x[39] x[40] x[41] x[42] x[43] x[44] x[45] x[46] x[47] x[48] x[49]
 x[50] x[51] x[52] x[53] x[54] x[55] x[56] x[57] x[58] x[59] u[0] u[1] u[2]
 u[3] u[4] u[5] u[6] u[7] u[8] u[9] u[10] u[11] u[12] u[13] u[14] u[15]
 u[16] u[17] u[18] u[19] u[20] u[21] u[22] u[23] u[24] u[25] u[26] u[27]
 u[28] u[29] u[30] u[31] u[32] u[33] u[34] u[35] u[36] u[37] u[38] u[39]
 u[40] u[41] u[42] u[43] u[44] u[45] u[46] u[47] u[48] u[49] u[50] u[51]
 u[52] u[53] u[54] u[55] u[56] u[57] u[58] u[59] r[0] r[1] r[2] r[3] r[4]
 r[5] r[6] r[7] r[8] r[9] r[10] r[11] r[12] r[13] r[14] r[15] r[16] r[17]
 r[18] r[19] r[20] r[21] r[22] r[23] r[24] r[25] r[26] r[27] r[28] r[29]
 r[30] r[31] r[32] r[33] r[34] r[35] r[36] r[37] r[38] r[39] r[40] r[41]
 r[42] r[43] r[44] r[45] r[46] r[47] r[48] r[49] r[50] r[51] r[52] r[53]
 r[54] r[55] r[56] r[57] r[58] r[59]
End
